<number of tasks>
58

<cycle time>
54

<task times>
1 10
2 53
3 41
4 36
5 35
6 17
7 34
8 23
9 14
10 52
11 33
12 34
13 12
14 52
15 12
16 33
17 44
18 7
19 15
20 13
21 29
22 37
23 43
24 23
25 24
26 9
27 16
28 12
29 26
30 22
31 51
32 47
33 34
34 23
35 12
36 52
37 12
38 33
39 44
40 7
41 15
42 13
43 29
44 37
45 43
46 23
47 24
48 9
49 16
50 12
51 26
52 12
53 52
54 12
55 33
56 44
57 7
58 15

<precedence relations>
1,9
2,25
3,21
3,22
4,10
5,36
6,23
6,24
7,43
8,44
9,11
11,13
11,14
11,15
12,17
13,17
14,17
15,17
16,18
17,20
18,19
19,23
20,21
20,25
21,26
21,44
22,27
23,31
24,31
25,38
26,29
27,30
28,32
28,33
29,31
30,34
31,36
32,45
33,35
34,36
35,43
36,37
36,38
37,39
37,40
37,41
38,52
39,43
40,43
41,42
42,43
43,45
44,45
45,46
45,48
45,49
46,47
46,50
47,51
48,55
49,58
50,58
51,52
52,53
53,54
54,55
54,56
55,57
56,57
57,58

<setup times forward>
1,2:8
1,3:3
1,4:8
1,5:5
1,6:6
1,7:1
1,8:16
1,9:8
1,10:6
1,12:6
1,16:2
1,18:2
1,19:1
1,22:14
1,24:14
1,27:14
1,28:2
1,30:14
1,32:3
1,33:5
1,34:7
1,35:4
2,1:8
2,3:5
2,4:16
2,5:3
2,6:14
2,7:7
2,8:24
2,9:16
2,10:14
2,11:19
2,12:14
2,13:5
2,14:12
2,15:19
2,16:10
2,17:7
2,18:10
2,19:7
2,20:3
2,21:24
2,22:22
2,23:8
2,24:22
2,25:15
2,26:22
2,27:22
2,28:10
2,29:1
2,30:22
2,31:13
2,32:11
2,33:3
2,34:1
2,35:4
2,36:8
2,37:3
2,39:19
2,40:19
2,41:3
2,42:4
2,43:4
2,44:3
2,45:13
2,46:15
2,47:20
2,48:23
2,49:3
2,50:3
2,51:20
3,1:3
3,2:5
3,4:11
3,5:2
3,6:9
3,7:2
3,8:19
3,9:11
3,10:9
3,11:14
3,12:9
3,14:7
3,15:14
3,16:5
3,17:2
3,18:5
3,19:2
3,20:2
3,21:19
3,22:17
3,23:3
3,24:17
3,25:10
3,28:5
3,32:6
3,33:2
3,35:1
4,1:8
4,2:16
4,3:11
4,5:13
4,6:2
4,7:9
4,8:8
4,10:2
4,11:3
4,12:2
4,13:11
4,14:4
4,15:3
4,16:6
4,17:9
4,18:6
4,19:9
4,20:13
4,21:8
4,22:6
4,23:8
4,24:6
4,25:1
4,26:6
4,27:6
4,28:6
4,29:15
4,30:6
4,31:3
4,32:5
4,33:13
4,34:15
4,35:12
4,36:8
4,37:13
4,38:9
4,39:3
4,40:3
4,41:13
4,42:12
4,43:12
4,44:13
4,45:3
4,46:1
4,47:4
4,48:7
4,49:13
4,50:13
4,51:4
4,52:9
4,53:8
4,54:7
4,55:7
4,56:5
4,57:13
4,58:13
5,1:5
5,2:3
5,3:2
5,4:13
5,6:11
5,7:4
5,8:21
5,9:13
5,10:11
5,11:16
5,12:11
5,13:2
5,14:9
5,15:16
5,16:7
5,17:4
5,18:7
5,19:4
5,21:21
5,22:19
5,23:5
5,24:19
5,25:12
5,26:19
5,27:19
5,28:7
5,29:2
5,30:19
5,31:10
5,32:8
5,34:2
5,35:1
5,36:5
6,1:6
6,2:14
6,3:9
6,4:2
6,5:11
6,7:7
6,8:10
6,9:2
6,11:5
6,13:9
6,14:2
6,15:5
6,16:4
6,17:7
6,18:4
6,19:7
6,20:11
6,21:10
6,22:8
6,23:6
6,24:8
6,25:1
6,26:8
6,27:8
6,28:4
6,29:13
6,30:8
6,32:3
6,33:11
6,34:13
6,35:10
6,44:11
7,1:1
7,2:7
7,3:2
7,4:9
7,5:4
7,6:7
7,8:17
7,9:9
7,10:7
7,11:12
7,12:7
7,13:2
7,14:5
7,15:12
7,16:3
7,18:3
7,20:4
7,21:17
7,22:15
7,23:1
7,24:15
7,25:8
7,26:15
7,27:15
7,28:3
7,29:6
7,30:15
7,31:6
7,32:4
7,33:4
7,34:6
7,35:3
7,36:1
7,37:4
7,38:18
7,39:12
7,40:12
7,41:4
7,42:3
7,43:3
7,44:4
8,1:16
8,2:24
8,3:19
8,4:8
8,5:21
8,6:10
8,7:17
8,9:8
8,10:10
8,11:5
8,12:10
8,13:19
8,14:12
8,15:5
8,16:14
8,17:17
8,18:14
8,19:17
8,20:21
8,22:2
8,23:16
8,24:2
8,25:9
8,26:2
8,27:2
8,28:14
8,29:23
8,30:2
8,31:11
8,32:13
8,33:21
8,34:23
8,35:20
8,36:16
8,37:21
8,38:1
8,39:5
8,40:5
8,41:21
8,42:20
8,43:20
8,44:21
9,2:16
9,3:11
9,5:13
9,6:2
9,7:9
9,8:8
9,10:2
9,11:3
9,12:2
9,16:6
9,18:6
9,19:9
9,22:6
9,23:8
9,24:6
9,27:6
9,28:6
9,30:6
9,32:5
9,33:13
9,34:15
9,35:12
10,1:6
10,2:14
10,3:9
10,5:11
10,7:7
10,8:10
10,9:2
10,11:5
10,13:9
10,14:2
10,15:5
10,16:4
10,17:7
10,18:4
10,19:7
10,20:11
10,21:10
10,22:8
10,23:6
10,24:8
10,25:1
10,26:8
10,27:8
10,28:4
10,29:13
10,30:8
10,31:1
10,32:3
10,33:11
10,34:13
10,35:10
10,36:6
10,37:11
10,38:11
10,39:5
10,40:5
10,41:11
10,42:10
10,43:10
10,44:11
10,45:1
10,46:1
10,47:6
10,48:9
10,49:11
10,50:11
10,51:6
10,52:11
10,53:6
10,54:9
10,55:9
10,56:3
10,57:11
10,58:11
11,2:19
11,3:14
11,4:3
11,5:16
11,6:5
11,7:12
11,8:5
11,10:5
11,12:5
11,13:14
11,14:7
11,16:9
11,18:9
11,19:12
11,22:3
11,23:11
11,24:3
11,27:3
11,28:9
11,30:3
11,32:8
11,33:16
11,34:18
11,35:15
12,1:6
12,2:14
12,3:9
12,4:2
12,5:11
12,7:7
12,8:10
12,9:2
12,11:5
12,13:9
12,14:2
12,15:5
12,16:4
12,17:7
12,18:4
12,19:7
12,22:8
12,23:6
12,24:8
12,27:8
12,28:4
12,30:8
12,32:3
12,33:11
12,34:13
12,35:10
13,2:5
13,4:11
13,5:2
13,6:9
13,7:2
13,8:19
13,10:9
13,12:9
13,14:7
13,15:14
13,16:5
13,17:2
13,18:5
13,19:2
13,22:17
13,23:3
13,24:17
13,27:17
13,28:5
13,30:17
13,32:6
13,33:2
13,34:4
13,35:1
14,2:12
14,3:7
14,4:4
14,5:9
14,6:2
14,7:5
14,8:12
14,10:2
14,12:2
14,13:7
14,15:7
14,16:2
14,17:5
14,18:2
14,19:5
14,22:10
14,23:4
14,24:10
14,27:10
14,28:2
14,30:10
14,32:1
14,33:9
14,34:11
14,35:8
15,2:19
15,3:14
15,4:3
15,5:16
15,6:5
15,7:12
15,8:5
15,10:5
15,12:5
15,13:14
15,14:7
15,16:9
15,17:12
15,18:9
15,19:12
15,22:3
15,23:11
15,24:3
15,27:3
15,28:9
15,30:3
15,32:8
15,33:16
15,34:18
15,35:15
16,1:2
16,2:10
16,3:5
16,4:6
16,5:7
16,6:4
16,7:3
16,8:14
16,9:6
16,10:4
16,11:9
16,12:4
16,13:5
16,14:2
16,15:9
16,17:3
16,20:7
16,21:14
16,22:12
16,24:12
16,25:5
16,26:12
16,27:12
16,29:9
16,30:12
16,32:1
16,33:7
16,34:9
16,35:6
16,44:7
17,2:7
17,3:2
17,4:9
17,5:4
17,6:7
17,8:17
17,10:7
17,16:3
17,18:3
17,20:4
17,22:15
17,23:1
17,24:15
17,27:15
17,28:3
17,30:15
17,32:4
17,33:4
17,34:6
17,35:3
18,1:2
18,2:10
18,3:5
18,4:6
18,5:7
18,6:4
18,7:3
18,8:14
18,9:6
18,10:4
18,11:9
18,12:4
18,13:5
18,14:2
18,15:9
18,17:3
18,19:3
18,20:7
18,21:14
18,22:12
18,24:12
18,25:5
18,26:12
18,27:12
18,29:9
18,30:12
18,32:1
18,33:7
18,34:9
18,35:6
18,44:7
19,1:1
19,2:7
19,3:2
19,4:9
19,5:4
19,6:7
19,8:17
19,9:9
19,10:7
19,11:12
19,12:7
19,13:2
19,14:5
19,15:12
19,20:4
19,21:17
19,22:15
19,23:1
19,24:15
19,25:8
19,26:15
19,27:15
19,28:3
19,29:6
19,30:15
19,32:4
19,33:4
19,34:6
19,35:3
19,44:4
20,2:3
20,3:2
20,4:13
20,6:11
20,7:4
20,8:21
20,10:11
20,16:7
20,18:7
20,19:4
20,21:21
20,22:19
20,23:5
20,24:19
20,25:12
20,27:19
20,28:7
20,30:19
20,32:8
20,34:2
20,35:1
21,2:24
21,4:8
21,5:21
21,6:10
21,7:17
21,10:10
21,16:14
21,18:14
21,19:17
21,22:2
21,23:16
21,24:2
21,25:9
21,26:2
21,27:2
21,28:14
21,30:2
21,32:13
21,33:21
21,34:23
21,35:20
21,44:21
22,1:14
22,2:22
22,4:6
22,5:19
22,6:8
22,7:15
22,8:2
22,9:6
22,10:8
22,11:3
22,12:8
22,13:17
22,14:10
22,15:3
22,16:12
22,17:15
22,18:12
22,19:15
22,20:19
22,21:2
22,23:14
22,25:7
22,28:12
22,29:21
22,31:9
22,32:11
22,33:19
22,35:18
22,44:19
23,2:8
23,3:3
23,4:8
23,5:5
23,7:1
23,8:16
23,9:8
23,10:6
23,11:11
23,12:6
23,13:3
23,14:4
23,15:11
23,17:1
23,20:5
23,21:16
23,22:14
23,24:14
23,25:7
23,26:14
23,27:14
23,28:2
23,29:7
23,30:14
23,31:5
23,32:3
23,33:5
23,34:7
23,35:4
23,44:5
24,1:14
24,2:22
24,3:17
24,4:6
24,5:19
24,7:15
24,8:2
24,9:6
24,10:8
24,11:3
24,12:8
24,13:17
24,14:10
24,15:3
24,16:12
24,17:15
24,18:12
24,19:15
24,20:19
24,21:2
24,23:14
24,25:7
24,28:12
24,29:21
24,31:9
24,32:11
24,33:19
24,34:21
24,35:18
24,44:19
25,3:10
25,4:1
25,5:12
25,6:1
25,7:8
25,8:9
25,10:1
25,16:5
25,18:5
25,19:8
25,21:9
25,22:7
25,23:7
25,24:7
25,26:7
25,27:7
25,28:5
25,29:14
25,30:7
25,31:2
25,32:4
25,33:12
25,34:14
25,35:11
25,36:7
25,37:12
25,38:10
25,39:4
25,40:4
25,41:12
25,42:11
25,43:11
25,44:12
25,45:2
25,47:5
25,48:8
25,49:12
25,50:12
25,51:5
26,2:22
26,4:6
26,5:19
26,6:8
26,7:15
26,8:2
26,10:8
26,16:12
26,18:12
26,19:15
26,23:14
26,25:7
26,28:12
26,29:21
26,32:11
26,33:19
26,34:21
26,35:18
26,44:19
27,1:14
27,2:22
27,4:6
27,5:19
27,6:8
27,7:15
27,8:2
27,9:6
27,10:8
27,11:3
27,12:8
27,13:17
27,14:10
27,15:3
27,16:12
27,17:15
27,18:12
27,19:15
27,20:19
27,21:2
27,23:14
27,25:7
27,28:12
27,29:21
27,31:9
27,32:11
27,33:19
27,35:18
27,44:19
28,1:2
28,2:10
28,3:5
28,4:6
28,5:7
28,6:4
28,7:3
28,8:14
28,9:6
28,10:4
28,11:9
28,12:4
28,13:5
28,14:2
28,15:9
28,17:3
28,19:3
28,20:7
28,21:14
28,22:12
28,23:2
28,24:12
28,25:5
28,26:12
28,27:12
28,29:9
28,30:12
28,31:3
28,32:1
28,33:7
28,34:9
28,36:2
28,37:7
28,38:15
28,39:9
28,40:9
28,41:7
28,42:6
28,44:7
29,2:1
29,4:15
29,5:2
29,6:13
29,7:6
29,8:23
29,10:13
29,16:9
29,18:9
29,19:6
29,22:21
29,23:7
29,24:21
29,25:14
29,27:21
29,28:9
29,30:21
29,31:12
29,32:10
29,33:2
29,35:3
29,44:2
30,1:14
30,2:22
30,4:6
30,5:19
30,6:8
30,7:15
30,8:2
30,9:6
30,10:8
30,11:3
30,12:8
30,13:17
30,14:10
30,15:3
30,16:12
30,17:15
30,18:12
30,19:15
30,20:19
30,21:2
30,23:14
30,25:7
30,28:12
30,29:21
30,31:9
30,32:11
30,33:19
30,34:21
30,35:18
30,44:19
31,2:13
31,4:3
31,5:10
31,7:6
31,8:11
31,10:1
31,22:9
31,25:2
31,27:9
31,28:3
31,30:9
31,32:2
31,33:10
31,34:12
31,35:9
31,36:5
31,44:10
32,1:3
32,2:11
32,3:6
32,4:5
32,5:8
32,6:3
32,7:4
32,8:13
32,9:5
32,10:3
32,11:8
32,12:3
32,13:6
32,14:1
32,15:8
32,16:1
32,17:4
32,18:1
32,19:4
32,20:8
32,21:13
32,22:11
32,23:3
32,24:11
32,25:4
32,26:11
32,27:11
32,29:10
32,30:11
32,31:2
32,33:8
32,34:10
32,35:7
32,36:3
32,37:8
32,38:14
32,39:8
32,40:8
32,41:8
32,42:7
32,43:7
32,44:8
32,45:2
33,1:5
33,2:3
33,3:2
33,4:13
33,6:11
33,7:4
33,8:21
33,9:13
33,10:11
33,11:16
33,12:11
33,13:2
33,14:9
33,15:16
33,16:7
33,17:4
33,18:7
33,19:4
33,21:21
33,22:19
33,23:5
33,24:19
33,25:12
33,26:19
33,27:19
33,29:2
33,30:19
33,31:10
33,32:8
33,34:2
33,35:1
33,36:5
33,38:22
33,39:16
33,40:16
33,42:1
34,1:7
34,2:1
34,4:15
34,5:2
34,6:13
34,7:6
34,8:23
34,9:15
34,10:13
34,11:18
34,12:13
34,13:4
34,14:11
34,15:18
34,16:9
34,17:6
34,18:9
34,19:6
34,20:2
34,21:23
34,23:7
34,24:21
34,25:14
34,26:21
34,28:9
34,31:12
34,32:10
34,33:2
34,35:3
34,36:7
34,44:2
35,1:4
35,2:4
35,3:1
35,4:12
35,5:1
35,6:10
35,7:3
35,8:20
35,9:12
35,10:10
35,11:15
35,12:10
35,13:1
35,14:8
35,15:15
35,16:6
35,17:3
35,18:6
35,19:3
35,20:1
35,21:20
35,22:18
35,23:4
35,24:18
35,25:11
35,26:18
35,27:18
35,29:3
35,30:18
35,31:9
35,32:7
35,34:3
35,36:4
35,37:1
35,38:21
35,39:15
35,40:15
35,41:1
35,44:1
36,2:8
36,4:8
36,7:1
36,8:16
36,10:6
36,25:7
36,28:2
36,32:3
36,33:5
36,35:4
36,37:5
36,38:17
36,44:5
37,2:3
37,4:13
37,7:4
37,8:21
37,10:11
37,25:12
37,28:7
37,32:8
37,35:1
37,38:22
37,39:16
37,40:16
38,4:9
38,7:18
38,8:1
38,10:11
38,28:15
38,32:14
38,33:22
38,35:21
38,37:22
38,39:6
38,40:6
38,41:22
38,42:21
38,43:21
38,44:22
38,45:12
38,46:10
38,47:5
38,48:2
38,49:22
38,50:22
38,51:5
39,2:19
39,4:3
39,7:12
39,8:5
39,10:5
39,25:4
39,28:9
39,32:8
39,33:16
39,35:15
39,38:6
39,41:16
39,42:15
39,43:15
39,44:16
40,2:19
40,4:3
40,7:12
40,8:5
40,10:5
40,25:4
40,28:9
40,32:8
40,33:16
40,35:15
40,38:6
40,41:16
40,42:15
40,43:15
40,44:16
41,2:3
41,4:13
41,7:4
41,8:21
41,10:11
41,25:12
41,28:7
41,32:8
41,35:1
41,38:22
41,39:16
41,40:16
41,42:1
42,2:4
42,4:12
42,7:3
42,8:20
42,10:10
42,25:11
42,28:6
42,32:7
42,33:1
42,38:21
42,39:15
42,40:15
42,44:1
43,2:4
43,4:12
43,8:20
43,10:10
43,25:11
43,32:7
43,38:21
43,44:1
43,45:9
44,2:3
44,4:13
44,6:11
44,7:4
44,10:11
44,16:7
44,18:7
44,19:4
44,22:19
44,23:5
44,24:19
44,25:12
44,26:19
44,27:19
44,28:7
44,29:2
44,30:19
44,31:10
44,32:8
44,34:2
44,35:1
44,36:5
44,38:22
44,39:16
44,40:16
44,42:1
44,43:1
44,45:10
45,2:13
45,4:3
45,10:1
45,25:2
45,38:12
45,46:2
45,48:10
45,49:10
46,2:15
46,4:1
46,10:1
46,38:10
46,47:5
46,48:8
46,49:12
46,50:12
47,2:20
47,4:4
47,10:6
47,25:5
47,38:5
47,48:3
47,49:17
47,50:17
48,2:23
48,4:7
48,10:9
48,25:8
48,38:2
48,46:8
48,47:3
48,49:20
48,50:20
48,51:3
48,52:2
48,53:15
48,56:12
49,2:3
49,4:13
49,10:11
49,25:12
49,38:22
49,46:12
49,47:17
49,48:20
49,51:17
49,52:22
49,53:5
49,54:20
49,55:20
49,56:8
50,2:3
50,4:13
50,10:11
50,25:12
50,38:22
50,47:17
50,48:20
50,51:17
50,52:22
50,53:5
50,54:20
50,55:20
50,56:8
51,2:20
51,4:4
51,10:6
51,25:5
51,38:5
51,48:3
51,49:17
51,50:17
51,52:5
52,4:9
52,10:11
52,48:2
52,49:22
52,50:22
52,53:17
53,4:8
53,10:6
53,48:15
53,49:5
53,50:5
53,54:15
54,4:7
54,10:9
54,49:20
54,50:20
54,56:12
55,4:7
55,10:9
55,49:20
55,50:20
55,56:12
55,57:20
56,4:5
56,10:3
56,48:12
56,49:8
56,50:8
56,55:12
56,57:8
57,4:13
57,10:11
58,4:13
58,10:11

<setup times backward>
1,4:8
1,6:6
1,8:16
1,10:6
1,12:6
1,16:2
1,18:2
1,22:14
1,24:14
1,27:14
1,28:2
1,30:14
1,32:3
2,1:8
2,3:5
2,4:16
2,5:3
2,6:14
2,7:7
2,8:24
2,9:16
2,10:14
2,11:19
2,12:14
2,13:5
2,14:12
2,15:19
2,16:10
2,17:7
2,18:10
2,19:7
2,20:3
2,21:24
2,22:22
2,23:8
2,24:22
2,26:22
2,27:22
2,28:10
2,29:1
2,30:22
2,31:13
2,32:11
2,33:3
2,34:1
2,35:4
2,36:8
2,37:3
2,39:19
2,40:19
2,41:3
2,42:4
2,43:4
2,44:3
2,45:13
2,46:15
2,47:20
2,48:23
2,49:3
2,50:3
2,51:20
3,1:3
3,4:11
3,6:9
3,7:2
3,8:19
3,9:11
3,10:9
3,11:14
3,12:9
3,14:7
3,15:14
3,16:5
3,17:2
3,18:5
3,19:2
3,23:3
3,24:17
3,25:10
3,28:5
3,32:6
4,8:8
4,11:3
4,15:3
4,21:8
4,22:6
4,24:6
4,26:6
4,27:6
4,30:6
4,38:9
4,39:3
4,40:3
4,47:4
4,48:7
4,51:4
4,52:9
4,54:7
4,55:7
5,1:5
5,3:2
5,4:13
5,6:11
5,7:4
5,8:21
5,9:13
5,10:11
5,11:16
5,12:11
5,13:2
5,14:9
5,15:16
5,16:7
5,17:4
5,18:7
5,19:4
5,21:21
5,22:19
5,23:5
5,24:19
5,25:12
5,26:19
5,27:19
5,28:7
5,30:19
5,31:10
5,32:8
5,35:1
6,4:2
6,8:10
6,9:2
6,11:5
6,15:5
6,21:10
6,22:8
6,25:1
6,26:8
6,27:8
6,30:8
7,1:1
7,4:9
7,6:7
7,8:17
7,9:9
7,10:7
7,11:12
7,12:7
7,14:5
7,15:12
7,16:3
7,18:3
7,21:17
7,22:15
7,23:1
7,24:15
7,25:8
7,26:15
7,27:15
7,28:3
7,30:15
7,31:6
7,32:4
7,36:1
7,38:18
7,39:12
7,40:12
8,38:1
9,8:8
9,22:6
9,24:6
9,27:6
9,30:6
10,4:2
10,8:10
10,9:2
10,11:5
10,15:5
10,21:10
10,22:8
10,24:8
10,25:1
10,26:8
10,27:8
10,30:8
10,38:11
10,39:5
10,40:5
10,46:1
10,47:6
10,48:9
10,51:6
10,52:11
10,54:9
10,55:9
11,8:5
11,22:3
11,24:3
11,27:3
11,30:3
12,4:2
12,8:10
12,9:2
12,11:5
12,15:5
12,22:8
12,24:8
12,27:8
12,30:8
13,1:3
13,4:11
13,6:9
13,7:2
13,8:19
13,9:11
13,10:9
13,11:14
13,12:9
13,14:7
13,15:14
13,16:5
13,18:5
13,19:2
13,22:17
13,23:3
13,24:17
13,27:17
13,28:5
13,30:17
13,32:6
14,4:4
14,6:2
14,8:12
14,9:4
14,10:2
14,11:7
14,12:2
14,15:7
14,22:10
14,24:10
14,27:10
14,30:10
15,8:5
15,22:3
15,24:3
15,27:3
15,30:3
16,4:6
16,6:4
16,8:14
16,9:6
16,10:4
16,11:9
16,12:4
16,14:2
16,15:9
16,21:14
16,22:12
16,24:12
16,25:5
16,26:12
16,27:12
16,30:12
16,32:1
17,1:1
17,4:9
17,6:7
17,8:17
17,9:9
17,10:7
17,11:12
17,12:7
17,14:5
17,15:12
17,16:3
17,18:3
17,22:15
17,23:1
17,24:15
17,27:15
17,28:3
17,30:15
17,32:4
18,4:6
18,6:4
18,8:14
18,9:6
18,10:4
18,11:9
18,12:4
18,14:2
18,15:9
18,21:14
18,22:12
18,24:12
18,25:5
18,26:12
18,27:12
18,30:12
18,32:1
19,1:1
19,4:9
19,6:7
19,8:17
19,9:9
19,10:7
19,11:12
19,12:7
19,14:5
19,15:12
19,16:3
19,18:3
19,21:17
19,22:15
19,24:15
19,25:8
19,26:15
19,27:15
19,28:3
19,30:15
19,32:4
20,1:5
20,3:2
20,4:13
20,6:11
20,7:4
20,8:21
20,9:13
20,10:11
20,11:16
20,12:11
20,13:2
20,14:9
20,15:16
20,16:7
20,17:4
20,18:7
20,19:4
20,22:19
20,23:5
20,24:19
20,27:19
20,28:7
20,30:19
20,32:8
20,35:1
22,8:2
22,21:2
23,4:8
23,6:6
23,8:16
23,9:8
23,10:6
23,11:11
23,12:6
23,14:4
23,15:11
23,16:2
23,18:2
23,21:16
23,22:14
23,24:14
23,25:7
23,26:14
23,27:14
23,28:2
23,30:14
23,32:3
24,8:2
24,21:2
25,4:1
25,8:9
25,9:1
25,11:4
25,15:4
25,21:9
25,22:7
25,24:7
25,26:7
25,27:7
25,30:7
25,39:4
25,40:4
25,47:5
25,48:8
25,51:5
26,8:2
26,21:2
27,8:2
27,21:2
28,4:6
28,6:4
28,8:14
28,9:6
28,10:4
28,11:9
28,12:4
28,14:2
28,15:9
28,21:14
28,22:12
28,24:12
28,25:5
28,26:12
28,27:12
28,30:12
28,31:3
28,38:15
28,39:9
28,40:9
29,1:7
29,3:4
29,4:15
29,5:2
29,6:13
29,7:6
29,8:23
29,9:15
29,10:13
29,11:18
29,12:13
29,13:4
29,14:11
29,15:18
29,16:9
29,17:6
29,18:9
29,19:6
29,20:2
29,21:23
29,22:21
29,23:7
29,24:21
29,25:14
29,26:21
29,27:21
29,28:9
29,30:21
29,32:10
29,33:2
29,35:3
29,44:2
30,8:2
30,21:2
31,4:3
31,6:1
31,8:11
31,9:3
31,10:1
31,11:6
31,12:1
31,15:6
31,21:11
31,22:9
31,24:9
31,25:2
31,26:9
31,27:9
31,30:9
32,4:5
32,6:3
32,8:13
32,9:5
32,10:3
32,11:8
32,12:3
32,14:1
32,15:8
32,21:13
32,22:11
32,24:11
32,25:4
32,26:11
32,27:11
32,30:11
32,31:2
32,38:14
32,39:8
32,40:8
33,1:5
33,3:2
33,4:13
33,6:11
33,7:4
33,8:21
33,9:13
33,10:11
33,11:16
33,12:11
33,13:2
33,14:9
33,15:16
33,16:7
33,17:4
33,18:7
33,19:4
33,21:21
33,22:19
33,23:5
33,24:19
33,25:12
33,26:19
33,27:19
33,28:7
33,30:19
33,31:10
33,32:8
33,36:5
33,38:22
33,39:16
33,40:16
33,42:1
34,1:7
34,3:4
34,4:15
34,5:2
34,6:13
34,7:6
34,8:23
34,9:15
34,10:13
34,11:18
34,12:13
34,13:4
34,14:11
34,15:18
34,16:9
34,17:6
34,18:9
34,19:6
34,20:2
34,21:23
34,22:21
34,23:7
34,24:21
34,25:14
34,26:21
34,27:21
34,28:9
34,30:21
34,31:12
34,32:10
34,33:2
34,35:3
34,44:2
35,1:4
35,3:1
35,4:12
35,6:10
35,7:3
35,8:20
35,9:12
35,10:10
35,11:15
35,12:10
35,13:1
35,14:8
35,15:15
35,16:6
35,17:3
35,18:6
35,19:3
35,21:20
35,22:18
35,23:4
35,24:18
35,25:11
35,26:18
35,27:18
35,28:6
35,30:18
35,31:9
35,32:7
35,36:4
35,38:21
35,39:15
35,40:15
36,4:8
36,6:6
36,8:16
36,9:8
36,10:6
36,11:11
36,12:6
36,14:4
36,15:11
36,16:2
36,18:2
36,21:16
36,22:14
36,24:14
36,25:7
36,26:14
36,27:14
36,28:2
36,30:14
36,31:5
36,32:3
37,1:5
37,3:2
37,4:13
37,6:11
37,7:4
37,8:21
37,9:13
37,10:11
37,11:16
37,12:11
37,13:2
37,14:9
37,15:16
37,16:7
37,17:4
37,18:7
37,19:4
37,21:21
37,22:19
37,23:5
37,24:19
37,25:12
37,26:19
37,27:19
37,28:7
37,30:19
37,31:10
37,32:8
37,35:1
37,36:5
37,38:22
39,8:5
39,21:5
39,22:3
39,24:3
39,26:3
39,27:3
39,30:3
39,38:6
40,8:5
40,21:5
40,22:3
40,24:3
40,26:3
40,27:3
40,30:3
40,38:6
41,1:5
41,3:2
41,4:13
41,6:11
41,7:4
41,8:21
41,9:13
41,10:11
41,11:16
41,12:11
41,13:2
41,14:9
41,15:16
41,16:7
41,17:4
41,18:7
41,19:4
41,21:21
41,22:19
41,23:5
41,24:19
41,25:12
41,26:19
41,27:19
41,28:7
41,30:19
41,31:10
41,32:8
41,35:1
41,36:5
41,38:22
41,39:16
41,40:16
42,1:4
42,3:1
42,4:12
42,6:10
42,7:3
42,8:20
42,9:12
42,10:10
42,11:15
42,12:10
42,13:1
42,14:8
42,15:15
42,16:6
42,17:3
42,18:6
42,19:3
42,21:20
42,22:18
42,23:4
42,24:18
42,25:11
42,26:18
42,27:18
42,28:6
42,30:18
42,31:9
42,32:7
42,36:4
42,38:21
42,39:15
42,40:15
43,1:4
43,3:1
43,4:12
43,6:10
43,7:3
43,8:20
43,9:12
43,10:10
43,11:15
43,12:10
43,13:1
43,14:8
43,15:15
43,16:6
43,17:3
43,18:6
43,19:3
43,21:20
43,22:18
43,23:4
43,24:18
43,25:11
43,26:18
43,27:18
43,28:6
43,30:18
43,31:9
43,32:7
43,36:4
43,38:21
43,39:15
43,40:15
44,1:5
44,3:2
44,4:13
44,6:11
44,7:4
44,8:21
44,9:13
44,10:11
44,11:16
44,12:11
44,13:2
44,14:9
44,15:16
44,16:7
44,17:4
44,18:7
44,19:4
44,21:21
44,22:19
44,23:5
44,24:19
44,25:12
44,26:19
44,27:19
44,28:7
44,30:19
44,31:10
44,32:8
44,35:1
44,36:5
44,38:22
44,39:16
44,40:16
44,42:1
44,43:1
45,4:3
45,6:1
45,8:11
45,9:3
45,10:1
45,11:6
45,12:1
45,15:6
45,21:11
45,22:9
45,24:9
45,25:2
45,26:9
45,27:9
45,30:9
45,38:12
45,39:6
45,40:6
46,4:1
46,8:9
46,9:1
46,11:4
46,15:4
46,21:9
46,22:7
46,24:7
46,26:7
46,27:7
46,30:7
46,38:10
46,39:4
46,40:4
46,48:8
47,8:4
47,21:4
47,22:2
47,24:2
47,26:2
47,27:2
47,30:2
47,38:5
47,48:3
48,8:1
48,21:1
48,38:2
48,52:2
49,1:5
49,3:2
49,4:13
49,6:11
49,7:4
49,8:21
49,9:13
49,10:11
49,11:16
49,12:11
49,13:2
49,14:9
49,15:16
49,16:7
49,17:4
49,18:7
49,19:4
49,21:21
49,22:19
49,23:5
49,24:19
49,25:12
49,26:19
49,27:19
49,28:7
49,30:19
49,31:10
49,32:8
49,35:1
49,36:5
49,38:22
49,39:16
49,40:16
49,42:1
49,43:1
49,45:10
49,46:12
49,47:17
49,48:20
49,51:17
49,52:22
49,53:5
49,54:20
49,55:20
49,56:8
50,1:5
50,3:2
50,4:13
50,6:11
50,7:4
50,8:21
50,9:13
50,10:11
50,11:16
50,12:11
50,13:2
50,14:9
50,15:16
50,16:7
50,17:4
50,18:7
50,19:4
50,21:21
50,22:19
50,23:5
50,24:19
50,25:12
50,26:19
50,27:19
50,28:7
50,30:19
50,31:10
50,32:8
50,35:1
50,36:5
50,38:22
50,39:16
50,40:16
50,42:1
50,43:1
50,45:10
50,46:12
50,47:17
50,48:20
50,51:17
50,52:22
50,53:5
50,54:20
50,55:20
50,56:8
51,8:4
51,21:4
51,22:2
51,24:2
51,26:2
51,27:2
51,30:2
51,38:5
51,48:3
53,4:8
53,6:6
53,8:16
53,9:8
53,10:6
53,11:11
53,12:6
53,14:4
53,15:11
53,16:2
53,18:2
53,21:16
53,22:14
53,24:14
53,25:7
53,26:14
53,27:14
53,28:2
53,30:14
53,31:5
53,32:3
53,38:17
53,39:11
53,40:11
53,45:5
53,46:7
53,47:12
53,48:15
53,51:12
53,52:17
54,8:1
54,21:1
54,38:2
54,52:2
55,8:1
55,21:1
55,38:2
55,52:2
56,4:5
56,6:3
56,8:13
56,9:5
56,10:3
56,11:8
56,12:3
56,14:1
56,15:8
56,21:13
56,22:11
56,24:11
56,25:4
56,26:11
56,27:11
56,30:11
56,31:2
56,38:14
56,39:8
56,40:8
56,45:2
56,46:4
56,47:9
56,48:12
56,51:9
56,52:14
56,54:12
56,55:12
57,1:5
57,3:2
57,4:13
57,6:11
57,7:4
57,8:21
57,9:13
57,10:11
57,11:16
57,12:11
57,13:2
57,14:9
57,15:16
57,16:7
57,17:4
57,18:7
57,19:4
57,21:21
57,22:19
57,23:5
57,24:19
57,25:12
57,26:19
57,27:19
57,28:7
57,30:19
57,31:10
57,32:8
57,35:1
57,36:5
57,38:22
57,39:16
57,40:16
57,42:1
57,43:1
57,45:10
57,46:12
57,47:17
57,48:20
57,51:17
57,52:22
57,53:5
57,54:20
57,55:20
57,56:8
58,1:5
58,3:2
58,4:13
58,6:11
58,7:4
58,8:21
58,9:13
58,10:11
58,11:16
58,12:11
58,13:2
58,14:9
58,15:16
58,16:7
58,17:4
58,18:7
58,19:4
58,21:21
58,22:19
58,23:5
58,24:19
58,25:12
58,26:19
58,27:19
58,28:7
58,30:19
58,31:10
58,32:8
58,35:1
58,36:5
58,38:22
58,39:16
58,40:16
58,42:1
58,43:1
58,45:10
58,46:12
58,47:17
58,48:20
58,51:17
58,52:22
58,53:5
58,54:20
58,55:20
58,56:8

<end>

<optimal SALBP-1 value>
31


<rand seed>
467321153

<Lower Bounds>
Lm1=29
Lms1=29
Lm2=26
Lm3=26
Lm4=29
Best=29

<Optimal Stations (Iterations: 10)>
42
